(define-fun-rec
  v4
  ((x Int) (y Int) (z Int)) Int (ite (<= x 0) z (v4 (- x 1) y z)))
(define-fun-rec
  u4
  ((x Int) (y Int) (z Int)) Int
  (ite (<= x 0) y (* (u4 (- x 1) y z) (v4 (- x 1) y z))))
(define-funs-rec
  ((u1
    ((x Int) (y Int) (z Int)) Int)
   (v1
    ((x Int) (y Int) (z Int)) Int))
  ((ite (<= x 0) y (+ (u1 (- x 1) y z) (v1 (- x 1) y z)))
   (ite (<= x 0) z (- (u1 (- x 1) y z) (v1 (- x 1) y z)))))
(define-fun
  w1
  ((x Int)) Int (u1 x 0 1))
(define-fun
  h4
  ((x Int)) Int (div x 2))
(define-fun
  w4
  ((x Int)) Int (u4 (h4 x) 1 2))
(define-fun
  h2
  ((x Int)) Int (- x 1))
(define-fun
  h1
  ((x Int)) Int x)
(define-fun
  h0
  ((x Int)) Int x)
(define-fun
  g4
  ((x Int) (y Int)) Int y)
(define-fun
  g3
  ((x Int)) Int (div x 2))
(define-fun
  g2
  ((x Int)) Int x)
(define-fun
  f3
  ((x Int)) Int (+ x x))
(define-fun-rec
  u3
  ((x Int) (y Int)) Int (ite (<= x 0) y (f3 (u3 (- x 1) y))))
(define-fun
  v3
  ((x Int)) Int (u3 (g3 x) 1))
(define-fun
  f2
  ((x Int) (y Int)) Int (* 2 (+ (- x y) x)))
(define-funs-rec
  ((u2
    ((x Int) (y Int) (z Int)) Int)
   (v2
    ((x Int) (y Int) (z Int)) Int))
  ((ite (<= x 0) y (f2 (u2 (- x 1) y z) (v2 (- x 1) y z)))
   (ite (<= x 0) z (u2 (- x 1) y z))))
(define-fun
  w2
  ((x Int)) Int (u2 (h2 x) 1 0))
(define-fun
  fast
  ((x Int)) Int
  (* (div (+ (div (* (div (w2 x) (v3 x)) (ite (<= x 0) 1 2)) 2) 1) 2)
    (w4 x)))
(define-fun
  f0
  ((x Int) (y Int)) Int (+ (+ (+ x x) x) y))
(define-funs-rec
  ((u0
    ((x Int) (y Int) (z Int)) Int)
   (v0
    ((x Int) (y Int) (z Int)) Int))
  ((ite (<= x 0) y (f0 (u0 (- x 1) y z) (v0 (- x 1) y z)))
   (ite (<= x 0) z (+ (u0 (- x 1) y z) (v0 (- x 1) y z)))))
(define-fun
  w0
  ((x Int)) Int (u0 x 0 1))
(define-fun
  small
  ((x Int)) Int (div (+ (w0 x) (w1 x)) 2))
(assert-not
  (forall ((c Int)) (or (not (>= c 0)) (= (small c) (fast c)))))
